
Log started (V20.1.0.0) Tue Aug  9 00:29:06 2022


Problem 'pp.lp' read.
Read time = 0.00 sec. (0.00 ticks)
Version identifier: 20.1.0.0 | 2020-11-10 | 9bedb6d68
Tried aggregator 1 time.
No LP presolve or aggregator reductions.
Presolve time = 0.00 sec. (0.00 ticks)

Iteration log . . .
Iteration:     1   Dual infeasibility =             0.000000
Iteration:     2   Dual objective     =           361.000000

Dual simplex - Optimal:  Objective =  3.6100000000e+02
Solution time =    0.00 sec.  Iterations = 2 (1)
Deterministic time = 0.00 ticks  (4.82 ticks/sec)


Variable Name           Solution Value
x2                           14.000000
x5                            1.000000
All other variables matching '*' are 0.
